NAME : sample_35
COMMENT : Sample TSP instance with 35 cities
TYPE : TSP
DIMENSION : 35
EDGE_WEIGHT_TYPE : EUC_2D
NODE_COORD_SECTION
1 476 790
2 892 463
3 535 490
4 498 871
5 760 331
6 13 83
7 955 249
8 847 904
9 337 161
10 788 988
11 216 187
12 106 77
13 874 126
14 622 737
15 110 259
16 991 934
17 341 364
18 772 121
19 995 913
20 1 727
21 604 933
22 441 47
23 473 512
24 82 361
25 740 776
26 517 523
27 188 575
28 351 50
29 695 615
30 377 321
31 417 372
32 708 633
33 314 385
34 244 440
35 589 718
EOF
